(declare-rel fail ())
(declare-rel inv2 (Int Int Int Int Int Int Int Int Int))
(declare-var A Int)
(declare-var B Int)
(declare-var C Int)
(declare-var D Int)
(declare-var E Int)
(declare-var F Int)
(declare-var G Int)
(declare-var H Int)
(declare-var I Int)
(declare-var J Int)
(declare-var K Int)
(declare-var L Int)
(rule (=> (and (= J 0)
         (= G L)
         (= L 0)
         (= F (* 5530 A))
         (= E (* 1153 A))
         (= D (* 353 A))
         (= C (* 3530 A))
         (= 5 A))
    (inv2 J G L F E D C A A)))
(rule (let ((a!1 (and (inv2 J G L F E D C A A)
                (= H (+ J 1))
                (= K (ite (>= J D) (+ G 2) (+ G 1)))
                (= I (ite (>= G E) (+ L 3) (+ L 2))))))
  (=> a!1 (inv2 H K I F E D C A A))))
(rule (=> (and (inv2 J G L F E D C A A) (> J C) (not (> L F))) fail))
(query fail)

